0
Node Left Objective IInf Best_Integer Best_Bound ItCnt Gap
0+ 0 nan nan 11004.7490 0.0000 nan 100.00%
0+ 0 nan nan 8602.7702 0.0000 nan 100.00%
0 0 4493.1285 7 8602.7702 4493.1285 50 47.77%
0+ 0 nan nan 8590.2564 4493.1285 nan 47.70%
0+ 0 nan nan 7484.5683 4493.1285 nan 39.97%
0 2 4493.1285 7 7484.5683 4493.1285 50 39.97%
CPXPARAM_MIP_Cuts_Cliques 0
1
Node Left Objective IInf Best_Integer Best_Bound ItCnt Gap
0+ 0 nan nan 11004.7490 0.0000 nan 100.00%
0 0 integral 0 4493.1285 4493.1285 53 0.00%
CPXPARAM_MIP_Cuts_Cliques 0
2
Node Left Objective IInf Best_Integer Best_Bound ItCnt Gap
0+ 0 nan nan 11004.7490 0.0000 nan 100.00%
0+ 0 nan nan 8602.7702 0.0000 nan 100.00%
0 0 4551.0296 6 8602.7702 4551.0296 57 47.10%
0+ 0 nan nan 6986.6525 4551.0296 nan 34.86%
0 2 4551.0296 6 6986.6525 4552.4190 57 34.84%
CPXPARAM_MIP_Cuts_Cliques 0
3
Node Left Objective IInf Best_Integer Best_Bound ItCnt Gap
0+ 0 nan nan 11004.7490 0.0000 nan 100.00%
0 0 integral 0 5089.3686 5089.3686 41 0.00%
CPXPARAM_MIP_Cuts_Cliques 0
4
Node Left Objective IInf Best_Integer Best_Bound ItCnt Gap
0+ 0 nan nan 8838.2414 0.0000 nan 100.00%
0+ 0 nan nan 8270.8148 0.0000 nan 100.00%
0 0 5798.2654 7 8270.8148 5798.2654 46 29.89%
0+ 0 nan nan 8227.5567 5798.2654 nan 29.53%
0+ 0 nan nan 7782.5014 5798.2654 nan 25.50%
0+ 0 nan nan 7767.0771 5798.2654 nan 25.35%
0 2 5798.2654 7 7767.0771 5798.2654 46 25.35%
CPXPARAM_MIP_Cuts_Cliques 0
5
Node Left Objective IInf Best_Integer Best_Bound ItCnt Gap
0+ 0 nan nan 8838.2414 0.0000 nan 100.00%
0 0 integral 0 5798.2654 5798.2654 45 0.00%
CPXPARAM_MIP_Cuts_Cliques 0
6
Node Left Objective IInf Best_Integer Best_Bound ItCnt Gap
0+ 0 nan nan 8838.2414 0.0000 nan 100.00%
0+ 0 nan nan 8670.4195 0.0000 nan 100.00%
0 0 5798.2654 7 8670.4195 5798.2654 52 33.13%
0+ 0 nan nan 8230.0333 5798.2654 nan 29.55%
0+ 0 nan nan 8183.1134 5798.2654 nan 29.14%
0 2 5798.2654 7 8183.1134 5798.2654 52 29.14%
CPXPARAM_MIP_Cuts_Cliques 0
7
Node Left Objective IInf Best_Integer Best_Bound ItCnt Gap
0+ 0 nan nan 8838.2414 0.0000 nan 100.00%
0 0 integral 0 5935.6407 5935.6407 43 0.00%
CPXPARAM_MIP_Cuts_Cliques 0
8
Node Left Objective IInf Best_Integer Best_Bound ItCnt Gap
0+ 0 nan nan 10488.8441 0.0000 nan 100.00%
0+ 0 nan nan 9144.4107 0.0000 nan 100.00%
0 0 7125.1247 7 9144.4107 7125.1247 54 22.08%
0 2 7125.1247 7 9144.4107 7125.1247 54 22.08%
CPXPARAM_MIP_Cuts_Cliques 0
9
Node Left Objective IInf Best_Integer Best_Bound ItCnt Gap
0+ 0 nan nan 10488.8441 0.0000 nan 100.00%
0 0 integral 0 7190.6688 7190.6688 45 0.00%
CPXPARAM_MIP_Cuts_Cliques 0
10
Node Left Objective IInf Best_Integer Best_Bound ItCnt Gap
0+ 0 nan nan 10488.8441 0.0000 nan 100.00%
0 0 7200.3815 5 10488.8441 7200.3815 57 31.35%
0+ 0 nan nan 9179.8638 7200.3815 nan 21.56%
0+ 0 nan nan 9160.1498 7200.3815 nan 21.39%
0+ 0 nan nan 8616.8852 7200.3815 nan 16.44%
0 2 7200.3815 5 8616.8852 7200.3815 57 16.44%
CPXPARAM_MIP_Cuts_Cliques 0
11
Node Left Objective IInf Best_Integer Best_Bound ItCnt Gap
0+ 0 nan nan 10488.8441 0.0000 nan 100.00%
0 0 integral 0 7566.2609 7566.2609 45 0.00%
CPXPARAM_MIP_Cuts_Cliques 0
12
Node Left Objective IInf Best_Integer Best_Bound ItCnt Gap
0+ 0 nan nan 8568.0971 0.0000 nan 100.00%
0+ 0 nan nan 7682.8104 0.0000 nan 100.00%
0 0 5623.8596 7 7682.8104 5623.8596 46 26.80%
0 2 5623.8596 7 7682.8104 5623.8596 46 26.80%
CPXPARAM_MIP_Cuts_Cliques 0
13
Node Left Objective IInf Best_Integer Best_Bound ItCnt Gap
0+ 0 nan nan 8568.0971 0.0000 nan 100.00%
0 0 integral 0 5816.6887 5816.6887 49 0.00%
CPXPARAM_MIP_Cuts_Cliques 0
14
Node Left Objective IInf Best_Integer Best_Bound ItCnt Gap
0+ 0 nan nan 8568.0971 0.0000 nan 100.00%
0+ 0 nan nan 7682.8104 0.0000 nan 100.00%
0 0 5623.8596 7 7682.8104 5623.8596 40 26.80%
0+ 0 nan nan 7524.6096 5623.8596 nan 25.26%
0 2 5623.8596 7 7524.6096 5623.8596 40 25.26%
CPXPARAM_MIP_Cuts_Cliques 0
15
Node Left Objective IInf Best_Integer Best_Bound ItCnt Gap
0+ 0 nan nan 8568.0971 0.0000 nan 100.00%
0 0 integral 0 6048.6260 6048.6260 40 0.00%
CPXPARAM_MIP_Cuts_Cliques 0
16
Node Left Objective IInf Best_Integer Best_Bound ItCnt Gap
0+ 0 nan nan 8483.8978 0.0000 nan 100.00%
0 0 6204.6365 7 8483.8978 6204.6365 47 26.87%
0+ 0 nan nan 8131.2738 6204.6365 nan 23.69%
0+ 0 nan nan 7072.3639 6204.6365 nan 12.27%
0 2 6204.6365 7 7072.3639 6204.6365 47 12.27%
CPXPARAM_MIP_Cuts_Cliques 0
17
Node Left Objective IInf Best_Integer Best_Bound ItCnt Gap
0+ 0 nan nan 8483.8978 0.0000 nan 100.00%
0 0 integral 0 6303.6967 6303.6967 51 0.00%
CPXPARAM_MIP_Cuts_Cliques 0
18
Node Left Objective IInf Best_Integer Best_Bound ItCnt Gap
0+ 0 nan nan 8483.8978 0.0000 nan 100.00%
0 0 6236.8972 6 8483.8978 6236.8972 38 26.49%
0+ 0 nan nan 8133.9648 6236.8972 nan 23.32%
0+ 0 nan nan 7186.5924 6236.8972 nan 13.21%
0 2 6236.8972 6 7186.5924 6236.8972 38 13.21%
CPXPARAM_MIP_Cuts_Cliques 0
19
Node Left Objective IInf Best_Integer Best_Bound ItCnt Gap
0+ 0 nan nan 8483.8978 0.0000 nan 100.00%
0+ 0 nan nan 6462.1768 0.0000 nan 100.00%
0 0 integral 0 6443.0511 6443.0511 38 0.00%
CPXPARAM_MIP_Cuts_Cliques 0
20
Node Left Objective IInf Best_Integer Best_Bound ItCnt Gap
0+ 0 nan nan 6916.5237 0.0000 nan 100.00%
0+ 0 nan nan 6541.4998 0.0000 nan 100.00%
0 0 4118.1255 7 6541.4998 4118.1255 41 37.05%
0+ 0 nan nan 4855.5259 4118.1255 nan 15.19%
0+ 0 nan nan 4654.2661 4118.1255 nan 11.52%
0 2 4118.1255 7 4654.2661 4118.1255 41 11.52%
CPXPARAM_MIP_Cuts_Cliques 0
21
Node Left Objective IInf Best_Integer Best_Bound ItCnt Gap
0+ 0 nan nan 6916.5237 0.0000 nan 100.00%
0 0 integral 0 4118.1255 4118.1255 40 0.00%
CPXPARAM_MIP_Cuts_Cliques 0
22
Node Left Objective IInf Best_Integer Best_Bound ItCnt Gap
0+ 0 nan nan 6916.5237 0.0000 nan 100.00%
0+ 0 nan nan 6561.8501 0.0000 nan 100.00%
0 0 4118.6281 7 6561.8501 4118.6281 35 37.23%
0+ 0 nan nan 5710.7534 4118.6281 nan 27.88%
0+ 0 nan nan 4613.4392 4118.6281 nan 10.73%
0 2 4118.6281 7 4613.4392 4118.6281 35 10.73%
CPXPARAM_MIP_Cuts_Cliques 0
23
Node Left Objective IInf Best_Integer Best_Bound ItCnt Gap
0+ 0 nan nan 6916.5237 0.0000 nan 100.00%
0 0 integral 0 4118.1255 4118.1255 40 0.00%
CPXPARAM_MIP_Cuts_Cliques 0
24
Node Left Objective IInf Best_Integer Best_Bound ItCnt Gap
0+ 0 nan nan 7116.0235 0.0000 nan 100.00%
0+ 0 nan nan 6300.8955 0.0000 nan 100.00%
0 0 5093.9502 7 6300.8955 5093.9502 50 19.16%
0+ 0 nan nan 6203.5640 5093.9502 nan 17.89%
0+ 0 nan nan 5285.5091 5093.9502 nan 3.62%
0 2 5093.9502 7 5285.5091 5093.9502 50 3.62%
CPXPARAM_MIP_Cuts_Cliques 0
25
Node Left Objective IInf Best_Integer Best_Bound ItCnt Gap
0+ 0 nan nan 7116.0235 0.0000 nan 100.00%
0 0 integral 0 5101.0707 5101.0707 44 0.00%
CPXPARAM_MIP_Cuts_Cliques 0
26
Node Left Objective IInf Best_Integer Best_Bound ItCnt Gap
0+ 0 nan nan 7116.0235 0.0000 nan 100.00%
0+ 0 nan nan 6326.3054 0.0000 nan 100.00%
0 0 5099.6969 6 6326.3054 5099.6969 42 19.39%
0+ 0 nan nan 6203.7226 5099.6969 nan 17.80%
0+ 0 nan nan 6203.5640 5099.6969 nan 17.79%
0+ 0 nan nan 5723.5618 5099.6969 nan 10.90%
0 2 5099.6969 6 5723.5618 5099.6969 42 10.90%
CPXPARAM_MIP_Cuts_Cliques 0
27
Node Left Objective IInf Best_Integer Best_Bound ItCnt Gap
0+ 0 nan nan 7116.0235 0.0000 nan 100.00%
0 0 5102.0512 1 7116.0235 5102.0512 36 28.30%
0+ 0 nan nan 5102.4619 5102.0512 nan 0.01%
CPXPARAM_MIP_Cuts_Cliques 0
28
Node Left Objective IInf Best_Integer Best_Bound ItCnt Gap
0+ 0 nan nan 10996.9752 0.0000 nan 100.00%
0+ 0 nan nan 10656.8722 0.0000 nan 100.00%
0 0 8102.9887 7 10656.8722 8102.9887 53 23.96%
0+ 0 nan nan 9323.1599 8102.9887 nan 13.09%
0+ 0 nan nan 9241.0403 8102.9887 nan 12.32%
0 2 8102.9887 7 9241.0403 8102.9887 53 12.32%
CPXPARAM_MIP_Cuts_Cliques 0
29
Node Left Objective IInf Best_Integer Best_Bound ItCnt Gap
0+ 0 nan nan 10996.9752 0.0000 nan 100.00%
0 0 integral 0 8102.9887 8102.9887 45 0.00%
CPXPARAM_MIP_Cuts_Cliques 0
30
Node Left Objective IInf Best_Integer Best_Bound ItCnt Gap
0+ 0 nan nan 10996.9752 0.0000 nan 100.00%
0+ 0 nan nan 10687.4588 0.0000 nan 100.00%
0 0 8102.9887 7 10687.4588 8102.9887 46 24.18%
0+ 0 nan nan 9323.1599 8102.9887 nan 13.09%
0+ 0 nan nan 8875.9306 8102.9887 nan 8.71%
0 2 8102.9887 7 8875.9306 8102.9887 46 8.71%
CPXPARAM_MIP_Cuts_Cliques 0
31
Node Left Objective IInf Best_Integer Best_Bound ItCnt Gap
0+ 0 nan nan 10996.9752 0.0000 nan 100.00%
0 0 integral 0 8102.9887 8102.9887 39 0.00%
CPXPARAM_MIP_Cuts_Cliques 0
32
Node Left Objective IInf Best_Integer Best_Bound ItCnt Gap
0+ 0 nan nan 8525.2825 0.0000 nan 100.00%
0+ 0 nan nan 7594.6640 0.0000 nan 100.00%
0 0 4523.5692 7 7594.6640 4523.5692 51 40.44%
0+ 0 nan nan 7273.8068 4523.5692 nan 37.81%
0+ 0 nan nan 6647.5559 4523.5692 nan 31.95%
0 2 4523.5692 7 6647.5559 4523.5692 51 31.95%
CPXPARAM_MIP_Cuts_Cliques 0
33
Node Left Objective IInf Best_Integer Best_Bound ItCnt Gap
0+ 0 nan nan 8525.2825 0.0000 nan 100.00%
0 0 integral 0 4536.2805 4536.2805 46 0.00%
CPXPARAM_MIP_Cuts_Cliques 0
34
Node Left Objective IInf Best_Integer Best_Bound ItCnt Gap
0+ 0 nan nan 8525.2825 0.0000 nan 100.00%
0+ 0 nan nan 7625.7406 0.0000 nan 100.00%
0 0 4536.2805 6 7625.7406 4536.2805 41 40.51%
0+ 0 nan nan 7330.1259 4536.2805 nan 38.11%
0+ 0 nan nan 6571.9700 4536.2805 nan 30.98%
0 2 4536.2805 6 6571.9700 4536.2805 41 30.98%
CPXPARAM_MIP_Cuts_Cliques 0
35
Node Left Objective IInf Best_Integer Best_Bound ItCnt Gap
0+ 0 nan nan 8525.2825 0.0000 nan 100.00%
0+ 0 nan nan 5710.8795 0.0000 nan 100.00%
0 0 integral 0 5672.7423 5672.7423 40 0.00%
CPXPARAM_MIP_Cuts_Cliques 0
36
Node Left Objective IInf Best_Integer Best_Bound ItCnt Gap
0+ 0 nan nan 9622.7131 0.0000 nan 100.00%
0+ 0 nan nan 8425.2960 0.0000 nan 100.00%
0 0 5884.9287 7 8425.2960 5884.9287 55 30.15%
0+ 0 nan nan 7846.0391 5884.9287 nan 24.99%
0+ 0 nan nan 7480.4089 5884.9287 nan 21.33%
0+ 0 nan nan 6886.9543 5884.9287 nan 14.55%
0 2 5884.9287 7 6886.9543 5884.9287 55 14.55%
CPXPARAM_MIP_Cuts_Cliques 0
37
Node Left Objective IInf Best_Integer Best_Bound ItCnt Gap
0+ 0 nan nan 9622.7131 0.0000 nan 100.00%
0 0 integral 0 5884.9287 5884.9287 48 0.00%
CPXPARAM_MIP_Cuts_Cliques 0
38
Node Left Objective IInf Best_Integer Best_Bound ItCnt Gap
0+ 0 nan nan 9622.7131 0.0000 nan 100.00%
0+ 0 nan nan 8425.2960 0.0000 nan 100.00%
0 0 5884.9287 7 8425.2960 5884.9287 41 30.15%
0+ 0 nan nan 7846.0391 5884.9287 nan 24.99%
0+ 0 nan nan 7479.4346 5884.9287 nan 21.32%
0+ 0 nan nan 6886.9543 5884.9287 nan 14.55%
0 2 5884.9287 7 6886.9543 5884.9287 41 14.55%
CPXPARAM_MIP_Cuts_Cliques 0
39
Node Left Objective IInf Best_Integer Best_Bound ItCnt Gap
0+ 0 nan nan 9622.7131 0.0000 nan 100.00%
0 0 integral 0 5998.5362 5998.5362 40 0.00%
CPXPARAM_MIP_Cuts_Cliques 0
